NAME : rat99.tour
COMMENT : Optimum tour for rat99.tsp (Length 1211)
TYPE : TOUR
DIMENSION : 99
TOUR_SECTION
9
18
17
16
15
23
24
25
26
27
35
36
44
45
54
53
52
51
50
49
60
61
62
63
72
81
80
71
70
69
78
77
76
84
85
86
87
88
79
89
90
99
98
97
96
95
94
93
92
91
83
82
73
74
75
66
67
68
59
58
57
56
65
64
55
46
47
38
48
39
40
41
42
43
34
33
32
31
30
29
37
28
19
20
21
22
13
12
11
10
1
2
3
4
14
5
6
7
8
-1
EOF
